Cars = 1..200;
Options = 1..5;
Classes = 1..27;
sequenceMinCapacity = [0, 0, 0, 0, 0];
sequenceMaxCapacity = [1, 2, 1, 2, 1];
sequenceSize = [2, 3, 3, 5, 5];
numOrdered = [2, 7, 20, 2, 6, 22, 13, 12, 1, 1, 37, 8, 13, 6, 8, 6, 2, 3, 4, 2, 1, 1, 7, 3, 4, 4, 5];
classHasOption = [| true,  true,  true, false,  true
                  | true,  true, false,  true, false
                  | true,  true, false, false, false
                  |false,  true,  true, false,  true
                  | true,  true,  true, false, false
                  |false, false, false,  true, false
                  | true, false, false, false, false
                  |false,  true, false,  true, false
                  | true, false,  true,  true,  true
                  | true,  true,  true,  true, false
                  |false,  true, false, false, false
                  | true, false, false,  true, false
                  |false, false,  true, false, false
                  |false,  true, false, false,  true
                  |false,  true,  true, false, false
                  | true, false,  true, false, false
                  | true,  true, false, false,  true
                  |false, false, false,  true,  true
                  | true, false,  true,  true, false
                  |false,  true,  true,  true, false
                  |false, false,  true,  true,  true
                  | true,  true, false,  true,  true
                  | true, false, false, false,  true
                  |false, false, false, false,  true
                  |false, false, false, false, false
                  |false, false,  true, false, false
                  |false, false,  true, false, false|];
optionOrdering = [3, 1, 5, 4, 2];
